p cnf 140 471
-5 -3 0
-5 -4 0
3 4 5 0
-6 1 0
-6 -5 0
-1 5 6 0
7 -6 0
7 -3 0
6 3 -7 0
8 -3 0
8 -7 0
3 7 -8 0
10 9 0
10 -8 0
-9 8 -10 0
-11 8 0
-11 10 0
-8 -10 11 0
-2 -11 -12 0
2 11 -12 0
-2 11 12 0
2 -11 12 0
-1 -12 -13 0
1 12 -13 0
-1 12 13 0
1 -12 13 0
15 -14 0
15 -1 0
14 1 -15 0
-16 9 0
-16 -5 0
-9 5 16 0
15 16 -17 0
-15 -16 -17 0
15 -16 17 0
-15 16 17 0
-19 5 0
-19 18 0
-5 -18 19 0
21 18 0
21 -20 0
-18 20 -21 0
-22 14 0
-22 -21 0
-14 21 22 0
-23 -19 0
-23 -22 0
19 22 23 0
-20 22 -24 0
20 -22 -24 0
-20 -22 24 0
20 22 24 0
-25 -23 0
-25 -24 0
23 24 25 0
20 26 0
-20 26 0
-3 26 -27 0
3 -26 -27 0
-3 -26 27 0
3 26 27 0
28 21 0
28 -27 0
-21 27 -28 0
29 -4 0
29 20 0
4 -20 -29 0
-30 -28 0
-30 -29 0
28 29 30 0
-31 -16 0
-31 -30 0
16 30 31 0
-25 31 -32 0
25 -31 -32 0
-25 -31 32 0
25 31 32 0
17 32 -33 0
-17 -32 -33 0
17 -32 33 0
-17 32 33 0
-13 33 -34 0
13 -33 -34 0
-13 -33 34 0
13 33 34 0
24 5 -35 0
-24 -5 -35 0
24 -5 35 0
-24 5 35 0
36 -34 0
36 -35 0
34 35 -36 0
37 -20 0
37 -18 0
20 18 -37 0
-38 -37 0
-38 -1 0
37 1 38 0
-38 -37 -39 0
38 37 -39 0
-38 37 39 0
38 -37 39 0
40 38 0
40 -9 0
-38 9 -40 0
-41 -2 -42 0
41 2 -42 0
-41 2 42 0
41 -2 42 0
9 42 -43 0
-9 -42 -43 0
9 -42 43 0
-9 42 43 0
-43 -44 -45 0
43 44 -45 0
-43 44 45 0
43 -44 45 0
-47 -45 0
-47 -46 0
45 46 47 0
48 -40 0
48 47 0
40 -47 -48 0
39 -48 -49 0
-39 48 -49 0
39 48 49 0
-39 -48 49 0
18 15 -50 0
-18 -15 -50 0
18 -15 50 0
-18 15 50 0
-20 50 -51 0
20 -50 -51 0
-20 -50 51 0
20 50 51 0
52 49 0
52 51 0
-49 -51 -52 0
-53 -36 0
-53 -52 0
36 52 53 0
24 -23 -54 0
-24 23 -54 0
24 23 54 0
-24 -23 54 0
57 55 0
57 56 0
-55 -56 -57 0
-58 -18 -59 0
58 18 -59 0
-58 18 59 0
58 -18 59 0
-60 59 0
-60 18 0
-59 -18 60 0
-56 -22 -61 0
56 22 -61 0
-56 22 61 0
56 -22 61 0
21 44 -62 0
-21 -44 -62 0
21 -44 62 0
-21 44 62 0
-61 62 -63 0
61 -62 -63 0
-61 -62 63 0
61 62 63 0
-64 -60 0
-64 63 0
60 -63 64 0
-65 -57 0
-65 -64 0
57 64 65 0
66 12 0
66 6 0
-12 -6 -66 0
-67 66 0
-67 -5 0
-66 5 67 0
-68 67 0
-68 58 0
-67 -58 68 0
-65 -68 -69 0
65 68 -69 0
-65 68 69 0
65 -68 69 0
-70 54 0
-70 -69 0
-54 69 70 0
71 -50 0
71 15 0
50 -15 -71 0
-72 44 0
-72 56 0
-44 -56 72 0
-71 72 -73 0
71 -72 -73 0
-71 -72 73 0
71 72 73 0
74 -55 0
74 -21 0
55 21 -74 0
23 74 -75 0
-23 -74 -75 0
23 -74 75 0
-23 74 75 0
76 60 0
76 -75 0
-60 75 -76 0
77 73 0
77 -76 0
-73 76 -77 0
78 -70 0
78 77 0
70 -77 -78 0
-79 -18 0
-79 46 0
18 -46 79 0
80 -61 0
80 -79 0
61 79 -80 0
-81 80 0
-81 -46 0
-80 46 81 0
82 43 0
82 9 0
-43 -9 -82 0
83 -37 -84 0
-83 37 -84 0
83 37 84 0
-83 -37 84 0
82 -84 -85 0
-82 84 -85 0
82 84 85 0
-82 -84 85 0
-81 -85 -86 0
81 85 -86 0
-81 85 86 0
81 -85 86 0
-87 -43 0
-87 -17 0
43 17 87 0
88 75 0
88 45 0
-75 -45 -88 0
-9 45 -89 0
9 -45 -89 0
-9 -45 89 0
9 45 89 0
-90 -88 0
-90 -89 0
88 89 90 0
91 -87 0
91 -90 0
87 90 -91 0
-92 86 0
-92 91 0
-86 -91 92 0
-78 -92 -93 0
78 92 -93 0
-78 92 93 0
78 -92 93 0
-94 -53 0
-94 -93 0
53 93 94 0
95 1 0
95 42 0
-1 -42 -95 0
96 -59 0
96 22 0
59 -22 -96 0
-97 43 0
-97 96 0
-43 -96 97 0
-99 -97 0
-99 -98 0
97 98 99 0
-100 -18 0
-100 3 0
18 -3 100 0
101 61 0
101 45 0
-61 -45 -101 0
-102 -83 0
-102 -19 0
83 19 102 0
-103 102 0
-103 15 0
-102 -15 103 0
104 101 0
104 -103 0
-101 103 -104 0
-105 -100 0
-105 -104 0
100 104 105 0
106 -99 0
106 105 0
99 -105 -106 0
-107 -9 0
-107 16 0
9 -16 107 0
106 107 -108 0
-106 -107 -108 0
106 -107 108 0
-106 107 108 0
-109 -95 0
-109 -108 0
95 108 109 0
110 80 0
110 23 0
-80 -23 -110 0
111 6 0
111 -72 0
-6 72 -111 0
-112 -111 0
-112 -15 0
111 15 112 0
-110 112 -113 0
110 -112 -113 0
-110 -112 113 0
110 112 113 0
-114 -38 0
-114 2 0
38 -2 114 0
62 -114 -115 0
-62 114 -115 0
62 114 115 0
-62 -114 115 0
-116 115 0
-116 -14 0
-115 14 116 0
117 -9 0
117 -6 0
9 6 -117 0
118 117 0
118 58 0
-117 -58 -118 0
116 118 -119 0
-116 -118 -119 0
116 -118 119 0
-116 118 119 0
120 -113 0
120 -119 0
113 119 -120 0
-121 44 0
-121 -27 0
-44 27 121 0
-122 -8 0
-122 -12 0
8 12 122 0
-123 121 0
-123 -122 0
-121 122 123 0
-24 27 -124 0
24 -27 -124 0
-24 -27 124 0
24 27 124 0
-125 12 0
-125 45 0
-12 -45 125 0
124 125 -126 0
-124 -125 -126 0
124 -125 126 0
-124 125 126 0
-5 56 -127 0
5 -56 -127 0
-5 -56 127 0
5 56 127 0
-128 -43 0
-128 111 0
43 -111 128 0
-129 40 0
-129 -15 0
-40 15 129 0
-130 128 0
-130 -129 0
-128 129 130 0
-131 127 0
-131 130 0
-127 -130 131 0
-64 -44 -132 0
64 44 -132 0
-64 44 132 0
64 -44 132 0
133 131 0
133 -132 0
-131 132 -133 0
134 -24 0
134 -14 0
24 14 -134 0
-135 133 0
-135 -134 0
-133 134 135 0
-136 -126 0
-136 -135 0
126 135 136 0
137 123 0
137 -136 0
-123 136 -137 0
-138 -120 0
-138 -137 0
120 137 138 0
-139 -109 0
-139 -138 0
109 138 139 0
-94 139 -140 0
94 -139 -140 0
-94 -139 140 0
94 139 140 0
14 108 -74 3 0
-67 -101 0
-27 -53 -67 127 35 -76 0
16 -28 8 120 0
-126 -107 119 129 0
-14 -50 13 0
120 -124 66 -129 -69 0
-123 -55 -7 46 0
123 57 -7 -119 0
49 -122 72 -105 7 0
-11 117 0
-86 -57 118 -61 0
34 -74 79 0
-88 -28 67 92 63 0
-131 56 -109 5 0
-105 113 -32 -120 -132 0
140 25 -81 0
-137 -83 -68 0
-102 -82 -51 60 129 -50 0
76 14 2 50 117 -51 0
-84 -45 -138 -88 139 0
-54 4 0
73 64 -102 -87 126 91 0
96 -53 -26 -122 -7 46 0
54 -110 131 0
-127 -89 92 0
84 -131 67 0
37 -83 -98 0
135 136 77 -104 -113 -137 0
-12 86 32 0
-46 102 31 53 0
103 35 -85 -67 0
50 2 0
50 8 114 0
-45 -23 -114 0
139 3 -98 2 -22 -117 0
-12 -53 0
-62 116 0
63 135 -74 0
67 117 -63 0
-115 124 17 35 4 0
82 -50 -57 0
49 -107 -28 -5 0
64 -21 -11 0
-137 -100 0
106 81 0
-64 93 -107 -10 4 95 0
-69 71 121 0
-72 -31 0
131 -74 63 -5 88 0
48 113 -20 -56 14 0
-136 66 -8 106 104 0
-103 -46 134 16 0
101 -123 48 112 0
112 72 89 0
125 -103 -99 0
-76 120 -81 -123 -17 -107 0
51 -95 91 101 76 0
29 -36 125 58 -97 0
98 31 0
-28 -47 -67 0
140 0
